c Created with the Wolfram Language : www.wolfram.com
c 
p edge 80 590
e 2 3
e 2 4
e 1 5
e 2 6
e 5 6
e 3 9
e 4 9
e 5 9
e 8 9
e 1 10
e 3 10
e 8 10
e 9 10
e 3 11
e 10 11
e 3 13
e 10 13
e 11 13
e 1 14
e 5 14
e 6 14
e 1 15
e 14 15
e 2 16
e 6 16
e 12 16
e 3 17
e 7 17
e 8 17
e 10 17
e 12 17
e 16 17
e 2 18
e 9 18
e 13 18
e 13 19
e 15 19
e 2 20
e 18 20
e 10 21
e 15 21
e 2 22
e 5 22
e 10 22
e 21 22
e 10 23
e 21 23
e 3 24
e 9 24
e 17 24
e 20 24
e 23 24
e 1 25
e 6 25
e 13 25
e 16 25
e 19 25
e 21 25
e 24 25
e 2 26
e 7 26
e 8 26
e 11 26
e 16 26
e 23 26
e 4 27
e 11 27
e 12 27
e 19 27
e 20 27
e 12 28
e 16 28
e 20 28
e 23 28
e 24 28
e 2 29
e 4 29
e 5 29
e 9 29
e 13 29
e 16 29
e 22 29
e 27 29
e 1 30
e 4 30
e 13 30
e 18 30
e 19 30
e 1 31
e 8 31
e 9 31
e 10 31
e 11 31
e 17 31
e 24 31
e 26 31
e 30 31
e 2 32
e 11 32
e 16 32
e 29 32
e 7 33
e 17 33
e 23 33
e 24 33
e 29 33
e 31 33
e 32 33
e 9 34
e 17 34
e 21 34
e 22 34
e 27 34
e 31 34
e 32 34
e 5 35
e 9 35
e 10 35
e 12 35
e 15 35
e 17 35
e 19 35
e 24 35
e 7 36
e 10 36
e 16 36
e 20 36
e 27 36
e 28 36
e 31 36
e 5 37
e 10 37
e 12 37
e 14 37
e 21 37
e 27 37
e 30 37
e 31 37
e 34 37
e 35 37
e 1 38
e 4 38
e 11 38
e 15 38
e 16 38
e 37 38
e 6 39
e 10 39
e 18 39
e 27 39
e 29 39
e 33 39
e 6 40
e 12 40
e 14 40
e 15 40
e 22 40
e 24 40
e 30 40
e 35 40
e 4 41
e 5 41
e 9 41
e 10 41
e 18 41
e 20 41
e 27 41
e 1 42
e 6 42
e 7 42
e 8 42
e 14 42
e 22 42
e 25 42
e 33 42
e 41 42
e 1 43
e 2 43
e 6 43
e 11 43
e 16 43
e 19 43
e 33 43
e 1 44
e 5 44
e 8 44
e 9 44
e 26 44
e 27 44
e 29 44
e 33 44
e 41 44
e 42 44
e 4 45
e 10 45
e 12 45
e 20 45
e 24 45
e 36 45
e 41 45
e 43 45
e 44 45
e 3 46
e 19 46
e 20 46
e 39 46
e 3 47
e 5 47
e 13 47
e 17 47
e 28 47
e 34 47
e 38 47
e 40 47
e 5 48
e 6 48
e 13 48
e 15 48
e 17 48
e 18 48
e 23 48
e 27 48
e 32 48
e 5 49
e 7 49
e 8 49
e 23 49
e 25 49
e 29 49
e 31 49
e 36 49
e 37 49
e 38 49
e 39 49
e 43 49
e 1 50
e 4 50
e 5 50
e 11 50
e 14 50
e 26 50
e 29 50
e 45 50
e 8 51
e 9 51
e 15 51
e 18 51
e 28 51
e 31 51
e 33 51
e 41 51
e 45 51
e 46 51
e 49 51
e 2 52
e 11 52
e 21 52
e 32 52
e 35 52
e 37 52
e 38 52
e 41 52
e 48 52
e 13 53
e 18 53
e 23 53
e 25 53
e 28 53
e 38 53
e 50 53
e 51 53
e 2 54
e 4 54
e 8 54
e 11 54
e 13 54
e 17 54
e 20 54
e 25 54
e 36 54
e 38 54
e 45 54
e 50 54
e 8 55
e 14 55
e 20 55
e 22 55
e 27 55
e 40 55
e 41 55
e 45 55
e 53 55
e 10 56
e 15 56
e 16 56
e 30 56
e 37 56
e 42 56
e 48 56
e 52 56
e 1 57
e 10 57
e 27 57
e 28 57
e 32 57
e 34 57
e 36 57
e 56 57
e 15 58
e 19 58
e 28 58
e 33 58
e 34 58
e 35 58
e 38 58
e 39 58
e 43 58
e 50 58
e 51 58
e 56 58
e 2 59
e 5 59
e 14 59
e 19 59
e 25 59
e 29 59
e 33 59
e 38 59
e 45 59
e 47 59
e 12 60
e 15 60
e 18 60
e 19 60
e 20 60
e 22 60
e 25 60
e 38 60
e 40 60
e 51 60
e 52 60
e 56 60
e 58 60
e 1 61
e 2 61
e 10 61
e 14 61
e 16 61
e 18 61
e 22 61
e 36 61
e 59 61
e 5 62
e 15 62
e 16 62
e 25 62
e 27 62
e 45 62
e 50 62
e 4 63
e 5 63
e 10 63
e 11 63
e 18 63
e 24 63
e 33 63
e 38 63
e 43 63
e 46 63
e 49 63
e 56 63
e 62 63
e 5 64
e 6 64
e 10 64
e 25 64
e 35 64
e 36 64
e 42 64
e 44 64
e 59 64
e 3 65
e 12 65
e 21 65
e 26 65
e 48 65
e 55 65
e 1 66
e 3 66
e 7 66
e 8 66
e 12 66
e 13 66
e 20 66
e 21 66
e 22 66
e 28 66
e 41 66
e 49 66
e 50 66
e 11 67
e 13 67
e 14 67
e 18 67
e 24 67
e 35 67
e 40 67
e 41 67
e 44 67
e 45 67
e 47 67
e 49 67
e 50 67
e 51 67
e 63 67
e 8 68
e 22 68
e 26 68
e 27 68
e 28 68
e 35 68
e 40 68
e 41 68
e 46 68
e 56 68
e 66 68
e 7 69
e 19 69
e 22 69
e 26 69
e 27 69
e 32 69
e 33 69
e 35 69
e 53 69
e 54 69
e 60 69
e 3 70
e 17 70
e 22 70
e 31 70
e 35 70
e 43 70
e 44 70
e 51 70
e 66 70
e 5 71
e 25 71
e 26 71
e 48 71
e 58 71
e 60 71
e 62 71
e 63 71
e 3 72
e 6 72
e 19 72
e 30 72
e 44 72
e 52 72
e 55 72
e 58 72
e 60 72
e 68 72
e 9 73
e 12 73
e 13 73
e 16 73
e 25 73
e 29 73
e 36 73
e 43 73
e 44 73
e 53 73
e 1 74
e 4 74
e 5 74
e 7 74
e 16 74
e 19 74
e 21 74
e 22 74
e 26 74
e 27 74
e 33 74
e 41 74
e 47 74
e 53 74
e 54 74
e 55 74
e 57 74
e 70 74
e 71 74
e 4 75
e 12 75
e 13 75
e 24 75
e 27 75
e 30 75
e 31 75
e 33 75
e 37 75
e 40 75
e 41 75
e 43 75
e 45 75
e 46 75
e 48 75
e 59 75
e 62 75
e 65 75
e 68 75
e 71 75
e 73 75
e 4 76
e 6 76
e 9 76
e 10 76
e 12 76
e 13 76
e 18 76
e 19 76
e 41 76
e 43 76
e 48 76
e 71 76
e 73 76
e 6 77
e 7 77
e 14 77
e 17 77
e 24 77
e 25 77
e 29 77
e 30 77
e 33 77
e 39 77
e 41 77
e 53 77
e 54 77
e 63 77
e 66 77
e 68 77
e 71 77
e 72 77
e 74 77
e 75 77
e 76 77
e 15 78
e 18 78
e 21 78
e 31 78
e 32 78
e 38 78
e 47 78
e 49 78
e 53 78
e 54 78
e 55 78
e 63 78
e 68 78
e 73 78
e 77 78
e 7 79
e 20 79
e 29 79
e 30 79
e 35 79
e 42 79
e 50 79
e 51 79
e 52 79
e 54 79
e 62 79
e 67 79
e 77 79
e 4 80
e 6 80
e 7 80
e 13 80
e 15 80
e 22 80
e 27 80
e 35 80
e 36 80
e 50 80
e 51 80
e 55 80
e 56 80
e 66 80
